 Code  2332
 Dimension, Fixed Cost
   100        3000
 Facility, Client, Transportation Cost
     1        6           3
     1       43           2
     1       52           0
     1       57           2
     1       62           2
     1       76           1
     1       78           0
     1       81           0
     1       92           0
     1       94           1
     2       13           1
     2       25           4
     2       29           1
     2       43           0
     2       61           0
     2       70           2
     2       77           3
     2       91           3
     2       98           2
     3        5           2
     3       22           0
     3       29           1
     3       33           2
     3       46           1
     3       62           0
     3       63           2
     3       72           0
     3       73           2
     3       88           0
     3       96           4
     4        2           3
     4       11           0
     4       12           3
     4       19           3
     4       46           4
     4       48           2
     4       55           4
     4       56           3
     4       69           0
     4       83           0
     4       84           0
     4      100           0
     5        3           1
     5       24           2
     5       27           1
     5       40           3
     5       74           1
     5       89           4
     6        1           1
     6       11           1
     6       25           0
     6       26           3
     6       55           0
     6       58           0
     6       67           0
     6       75           1
     7       18           3
     7       22           0
     7       26           0
     7       34           1
     7       60           0
     7       62           1
     7       70           0
     7       73           0
     7       78           1
     7       82           0
     7       94           4
     8        1           2
     8        3           4
     8        6           2
     8       17           1
     8       62           3
     8       92           2
     9        4           2
     9       14           4
     9       19           1
     9       44           0
     9       50           2
     9       54           4
     9       69           3
     9       98           2
    10       13           2
    10       36           1
    10       40           4
    10       59           3
    10       79           1
    10       81           2
    10       82           3
    10       86           4
    10       95           2
    11        9           3
    11       28           0
    11       32           1
    11       34           3
    11       41           3
    11       53           4
    11       56           4
    11       88           4
    12        6           3
    12       25           4
    12       48           2
    12       52           2
    12       63           4
    12       77           2
    12       78           2
    12       81           3
    12       82           3
    13        4           3
    13        7           1
    13       11           0
    13       21           0
    13       24           2
    13       30           2
    13       39           0
    13       42           2
    13       45           1
    13       47           3
    13       67           3
    13       70           1
    13       91           2
    13       94           1
    14        4           3
    14       10           2
    14       27           0
    14       56           4
    14       57           2
    14       59           2
    14       89           2
    14       90           3
    14       96           1
    14       99           1
    15        3           3
    15       11           3
    15       19           3
    15       22           3
    15       27           0
    15       64           0
    15       75           3
    15       77           2
    15       96           4
    16       14           0
    16       20           2
    16       30           0
    16       34           0
    16       73           2
    16       86           1
    16       87           4
    17       10           4
    17       11           0
    17       20           4
    17       25           1
    17       46           1
    17       51           1
    17       63           2
    17       66           4
    17       70           2
    17       91           1
    17       97           3
    18        2           1
    18        7           0
    18       14           4
    18       15           1
    18       49           1
    18       56           1
    18       61           2
    18       71           3
    18       84           4
    19       14           0
    19       15           4
    19       26           4
    19       27           4
    19       33           2
    19       45           2
    19       70           4
    19       84           4
    19       85           3
    19       96           4
    20        2           2
    20        4           0
    20       13           3
    20       16           2
    20       28           1
    20       38           1
    20       43           4
    20       77           0
    20       83           1
    20       85           2
    21       11           0
    21       14           1
    21       24           3
    21       30           4
    21       31           4
    21       36           1
    21       37           1
    21       51           4
    21       69           2
    21       76           0
    21       80           3
    21       91           2
    22        5           2
    22        6           3
    22       12           2
    22       20           3
    22       21           4
    22       22           0
    22       35           4
    22       71           1
    22       77           3
    22       92           1
    23       22           2
    23       26           2
    23       27           0
    23       34           4
    23       42           0
    23       44           1
    23       53           3
    23       58           2
    23       61           3
    23       64           1
    23       68           0
    23       96           3
    23       99           1
    24        1           2
    24        2           0
    24       20           0
    24       22           2
    24       24           3
    24       27           1
    24       33           4
    24       44           3
    24       48           1
    24       65           1
    24       76           2
    24       83           1
    24       94           1
    24       95           0
    25        5           3
    25        8           4
    25       16           3
    25       24           0
    25       29           3
    25       54           2
    25       55           2
    25       75           3
    25       88           1
    26        5           4
    26        6           4
    26       12           4
    26       28           1
    26       41           0
    26       66           0
    26       77           0
    26       83           2
    26       87           3
    26       95           1
    26       97           4
    27        6           4
    27       10           0
    27       31           0
    27       39           1
    27       55           3
    27       62           0
    27       69           0
    27       95           1
    27       99           2
    28       18           2
    28       23           0
    28       39           2
    28       41           3
    28       56           1
    28       71           0
    29        8           1
    29       17           0
    29       24           1
    29       28           1
    29       54           1
    29       56           3
    29       62           0
    29       67           4
    29       93           0
    29       95           3
    29      100           2
    30        9           4
    30       14           0
    30       17           2
    30       32           3
    30       46           1
    30       64           1
    30       66           3
    30       67           2
    30       76           3
    30      100           4
    31        6           3
    31        9           0
    31       25           4
    31       51           4
    31       59           1
    31       68           0
    31       80           0
    31       85           0
    31       94           3
    31      100           3
    32        9           3
    32       15           3
    32       23           0
    32       27           1
    32       37           0
    32       45           3
    32       49           4
    32       53           0
    32       56           4
    32       73           1
    32       87           2
    32       93           2
    32       95           0
    32       99           2
    33        3           1
    33       18           1
    33       36           0
    33       38           0
    33       60           2
    33       65           0
    33       71           1
    33       73           1
    33       85           4
    33       86           2
    34       52           2
    34       58           4
    34       60           1
    34       80           1
    34       83           1
    34       90           3
    34       93           3
    35       30           0
    35       31           0
    35       35           4
    35       80           1
    35       81           1
    35       93           2
    35       94           4
    36        5           3
    36       12           0
    36       30           2
    36       42           2
    36       48           3
    36       53           1
    36       58           2
    36       65           0
    36       67           1
    36       76           3
    36       84           4
    36       98           2
    37        1           3
    37       15           4
    37       19           2
    37       22           4
    37       28           0
    37       32           0
    37       38           3
    37       65           1
    38        4           3
    38        5           3
    38       16           2
    38       20           3
    38       22           1
    38       27           1
    38       32           1
    38       35           2
    38       46           0
    38       72           2
    38       79           0
    38       82           3
    38       83           2
    38      100           0
    39       10           0
    39       14           1
    39       21           3
    39       26           4
    39       32           0
    39       35           4
    39       38           4
    39       41           3
    39       59           1
    39       67           1
    39       86           4
    39       87           1
    39       91           3
    40        8           4
    40        9           2
    40       10           0
    40       14           4
    40       17           1
    40       23           1
    40       35           3
    40       44           1
    40       56           3
    40       57           2
    40       64           1
    40       65           2
    40       68           4
    40       70           3
    40       72           0
    40       92           3
    40       97           2
    40      100           1
    41        5           4
    41       13           4
    41       18           3
    41       46           4
    41       48           3
    41       52           2
    41       79           0
    41       89           3
    41       90           3
    41       96           4
    42       19           4
    42       40           3
    42       46           2
    42       52           1
    42       80           1
    42       82           4
    42       90           0
    42       99           0
    43        4           4
    43        9           1
    43       11           4
    43       18           4
    43       29           1
    43       35           2
    43       45           4
    43       69           4
    43       78           4
    43       88           3
    43       98           0
    44        3           3
    44       12           3
    44       13           4
    44       17           3
    44       23           2
    44       33           2
    44       37           0
    44       60           1
    44       71           4
    44       72           3
    44       76           4
    44       85           3
    44       92           2
    45       18           2
    45       20           1
    45       27           1
    45       40           0
    45       49           2
    45       53           4
    45       72           3
    45       89           0
    45       97           4
    46       10           3
    46       30           1
    46       54           3
    46       58           0
    46       82           2
    46       87           1
    47        9           2
    47       19           1
    47       29           3
    47       31           3
    47       33           3
    47       36           1
    47       41           1
    47       42           1
    47       43           2
    47       49           4
    47       55           3
    47       57           3
    47       59           3
    47       62           0
    47       65           1
    47       81           1
    47       86           3
    47       91           1
    47       92           4
    48       49           2
    48       51           2
    48       53           3
    48       60           3
    48       63           1
    48       79           0
    48       88           0
    48       89           1
    48       97           0
    49       10           0
    49       15           4
    49       16           0
    49       24           2
    49       38           4
    49       51           1
    49       54           2
    49       88           2
    50        1           0
    50        7           3
    50       12           4
    50       22           2
    50       23           0
    50       24           3
    50       29           0
    50       61           2
    50       68           3
    50       78           1
    50       85           4
    50       86           0
    50       87           3
    50       92           0
    50       93           2
    50       96           3
    51        1           3
    51        2           4
    51        4           3
    51        7           0
    51        8           2
    51       14           2
    51       19           2
    51       35           2
    51       50           0
    51       57           3
    51       61           0
    51       64           4
    51       66           1
    51       72           0
    51       78           0
    51       79           4
    51       99           2
    52       25           4
    52       34           2
    52       40           3
    52       43           2
    52       46           1
    52       63           1
    52       70           4
    52       74           3
    52       81           4
    52       84           2
    52       87           4
    53       43           0
    53       46           4
    53       53           3
    53       60           4
    53       63           2
    54        3           2
    54       10           2
    54       37           2
    54       39           1
    54       40           4
    54       49           1
    54       50           2
    54       55           1
    54       61           3
    54       68           4
    54       75           0
    54       86           2
    54       93           4
    55        6           0
    55       16           1
    55       32           1
    55       39           1
    55       47           3
    55       57           1
    55       90           0
    55       94           4
    55       97           4
    56       33           4
    56       38           4
    56       44           0
    56       52           3
    56       54           0
    56       80           4
    56       83           3
    57        7           2
    57       29           3
    57       30           3
    57       38           3
    57       60           1
    57       63           1
    57       75           0
    57       89           1
    57       90           3
    57       93           2
    57       96           1
    58        4           0
    58        9           4
    58       15           4
    58       17           2
    58       20           1
    58       32           0
    58       42           1
    58       55           3
    58       65           3
    58       67           0
    58       71           4
    58       74           0
    58       75           3
    58       76           0
    58       89           1
    58       91           1
    58       99           0
    59        2           4
    59        3           2
    59       23           0
    59       25           0
    59       31           3
    59       40           4
    59       47           0
    59       64           2
    59       74           3
    59       97           0
    60       10           2
    60       13           3
    60       21           4
    60       23           1
    60       29           3
    60       36           1
    60       47           2
    60       90           3
    60       95           3
    60       99           3
    61       13           2
    61       39           1
    61       52           0
    61       53           0
    61       78           0
    61       94           0
    62        2           0
    62        8           2
    62       11           0
    62       30           4
    62       37           3
    62       47           0
    62       51           0
    62       79           4
    62       82           3
    62       98           2
    62      100           4
    63        7           0
    63        8           3
    63       12           1
    63       23           2
    63       34           4
    63       37           1
    63       47           3
    63       68           1
    63       82           3
    63       96           3
    63      100           3
    64        7           2
    64       23           0
    64       32           2
    64       34           4
    64       35           4
    64       68           4
    64       73           1
    65        5           1
    65       36           0
    65       39           3
    65       41           3
    65       58           2
    65       75           0
    66        4           4
    66        8           4
    66       30           2
    66       50           1
    66       52           0
    66       54           4
    66       55           3
    66       57           3
    66       72           3
    66       76           0
    66       81           2
    66       84           3
    66       85           1
    66       89           0
    67       10           4
    67       14           4
    67       18           3
    67       23           3
    67       24           3
    67       28           3
    67       64           0
    67       72           1
    67       74           1
    67       80           2
    67       92           0
    67       98           3
    68        1           1
    68       19           1
    68       21           4
    68       31           4
    68       38           3
    68       47           0
    68       78           4
    68       83           2
    68       99           1
    69       31           1
    69       42           0
    69       56           2
    69       67           2
    69       72           2
    69       74           0
    69       76           4
    70        1           0
    70       12           2
    70       71           0
    70       73           0
    70       93           3
    71       17           1
    71       20           0
    71       21           0
    71       31           2
    71       34           2
    71       35           1
    71       45           0
    71       48           1
    71       49           4
    71       62           1
    71       69           0
    71       79           1
    71       82           4
    71       86           4
    71       92           2
    71       96           1
    71       97           0
    72       26           0
    72       37           3
    72       42           0
    72       62           0
    72       63           3
    72       82           0
    72       95           3
    73        3           3
    73       31           1
    73       61           4
    73       66           1
    73       68           1
    73       77           4
    73       84           1
    73       85           3
    73       90           0
    73       95           4
    73       99           1
    74        3           0
    74       22           2
    74       25           4
    74       31           0
    74       39           3
    74       53           3
    74       57           1
    74       66           4
    74       89           0
    75       13           0
    75       42           4
    75       43           1
    75       45           2
    75       49           3
    75       60           2
    75       66           2
    75       70           0
    75       73           1
    75       74           0
    75      100           0
    76       15           1
    76       33           2
    76       42           2
    76       49           4
    76       66           2
    76       83           3
    77       21           3
    77       25           1
    77       32           0
    77       40           1
    77       59           2
    77       73           0
    78        2           1
    78       11           1
    78       15           0
    78       19           3
    78       48           1
    78       63           3
    79       20           0
    79       29           4
    79       41           0
    79       69           0
    79       71           4
    79       79           3
    80       18           1
    80       21           1
    80       28           2
    80       33           3
    80       45           2
    80       50           1
    80       60           2
    80       67           2
    80       77           3
    80       91           0
    81       21           3
    81       40           3
    81       50           4
    81       66           0
    81       83           1
    81       98           0
    82        1           4
    82        2           4
    82        3           0
    82       18           1
    82       75           0
    82       76           3
    82       80           3
    82       85           3
    82       86           0
    82       90           3
    83       24           0
    83       26           4
    83       37           4
    83       46           4
    83       48           0
    83       61           1
    83       81           3
    83       84           3
    83       86           0
    83       88           4
    83       94           0
    83       98           0
    84        5           0
    84        7           4
    84       12           1
    84       19           3
    84       44           2
    84       47           1
    84       67           2
    84       71           3
    84       75           3
    84       78           2
    84       81           1
    84       97           2
    85        8           2
    85       27           2
    85       33           2
    85       36           1
    85       42           2
    85       45           1
    85       64           4
    85       88           0
    86        7           4
    86       13           4
    86       18           3
    86       20           0
    86       30           4
    86       33           3
    86       58           0
    86       65           4
    87       36           4
    87       41           0
    87       53           4
    87       55           4
    87       68           3
    87       87           4
    87       88           1
    88        7           4
    88       15           3
    88       26           2
    88       36           3
    88       40           4
    88       43           0
    88       44           4
    88       47           3
    88       50           1
    88       51           2
    88       54           2
    88       59           2
    88       77           0
    88       79           3
    89        8           3
    89       17           3
    89       41           3
    89       48           2
    89       50           3
    89       52           3
    89       59           4
    89       68           4
    89       69           2
    89       70           1
    89       73           3
    89       88           0
    90        5           4
    90       12           4
    90       28           3
    90       34           0
    90       35           0
    90       45           3
    90       47           2
    90       51           0
    90       54           1
    90       74           2
    90       87           1
    90       89           4
    90       93           3
    90       98           1
    91       16           2
    91       51           0
    91       58           1
    91       69           1
    91       70           1
    91       91           1
    92       13           1
    92       28           4
    92       41           4
    92       44           1
    92       45           4
    92       65           3
    92       75           4
    92       79           2
    92       80           2
    92       84           1
    92       97           2
    92      100           1
    93        9           0
    93       16           4
    93       17           4
    93       32           2
    93       36           0
    93       39           4
    93       44           3
    93       51           4
    93       54           0
    93       59           1
    93       60           2
    93       63           4
    93       64           4
    93       66           4
    93       74           1
    93       92           1
    94       16           1
    94       37           1
    94       50           4
    94       58           3
    94       59           1
    94       61           1
    94       62           2
    94       64           3
    94       85           3
    94       87           4
    94       90           4
    95        6           3
    95       16           2
    95       25           0
    95       49           0
    95       52           1
    95       69           0
    95       74           2
    95       78           3
    95       80           2
    95       84           4
    96        2           0
    96       29           3
    96       38           3
    96       48           4
    96       50           2
    96       56           2
    96       57           0
    96       61           2
    97        1           2
    97        6           2
    97       21           4
    97       26           2
    97       37           0
    97       43           0
    97       77           4
    97       98           4
    98       15           4
    98       16           4
    98       38           3
    98       44           1
    98       94           2
    99        4           2
    99        8           2
    99        9           0
    99       17           2
    99       28           0
    99       34           3
    99       55           4
    99       58           2
    99       71           3
    99       72           2
    99       93           0
    99       95           4
   100       11           0
   100       26           0
   100       39           1
   100       43           4
   100       57           1
   100       65           1
   100       81           4
   100       91           2
